Gurobi Optimizer version 9.1.0 build v9.1.0rc0 (linux64)
Thread count: 8 physical cores, 16 logical processors, using up to 16 threads
Optimize a model with 8808 rows, 8160 columns and 44380 nonzeros
Model fingerprint: 0x1f26fe43
Variable types: 0 continuous, 8160 integer (8160 binary)
Coefficient statistics:
  Matrix range     [1e+00, 1e+00]
  Objective range  [1e+01, 1e+04]
  Bounds range     [1e+00, 1e+00]
  RHS range        [1e+00, 1e+02]
Presolve removed 20 rows and 20 columns
Presolve time: 0.09s
Presolved: 8788 rows, 8140 columns, 44340 nonzeros
Variable types: 0 continuous, 8140 integer (8140 binary)
Found heuristic solution: objective 120988.00000

Concurrent LP optimizer: primal simplex, dual simplex, and barrier
Showing barrier log only...

Root barrier log...

Ordering time: 0.02s

Barrier statistics:
 Dense cols : 80
 AA' NZ     : 3.814e+04
 Factor NZ  : 1.672e+05 (roughly 8 MBytes of memory)
 Factor Ops : 5.868e+06 (less than 1 second per iteration)
 Threads    : 6

                  Objective                Residual
Iter       Primal          Dual         Primal    Dual     Compl     Time
   0   2.98871127e+06 -3.05177432e+04  4.69e+01 0.00e+00  7.51e+02     0s
   1   1.54658812e+05 -9.61722705e+05  5.30e-01 1.06e+03  4.97e+01     0s
   2   1.27928625e+05 -1.30895960e+05  6.55e-02 2.28e+03  9.95e+00     0s
   3   1.25865579e+05  4.07834976e+04  4.18e-02 7.57e+02  3.20e+00     0s
   4   1.18029022e+05  8.60975222e+04  3.27e-03 2.89e+02  1.22e+00     0s
   5   1.14099129e+05  1.00001361e+05  8.96e-04 1.28e+02  5.39e-01     0s
   6   1.12374899e+05  1.03170499e+05  5.33e-04 8.30e+01  3.53e-01     0s
   7   1.11155594e+05  1.06405048e+05  3.37e-04 3.53e+01  1.83e-01     0s

Barrier performed 7 iterations in 0.30 seconds
Barrier solve interrupted - model solved by another algorithm


Solved with dual simplex

Root relaxation: objective 1.084920e+05, 1315 iterations, 0.16 seconds

    Nodes    |    Current Node    |     Objective Bounds      |     Work
 Expl Unexpl |  Obj  Depth IntInf | Incumbent    BestBd   Gap | It/Node Time

*    0     0               0    108492.00000 108492.000  0.00%     -    0s

Explored 0 nodes (1315 simplex iterations) in 0.33 seconds
Thread count was 16 (of 16 available processors)

Solution count 2: 108492 120988 

Optimal solution found (tolerance 1.00e-04)
Best objective 1.084920000000e+05, best bound 1.084920000000e+05, gap 0.0000%

User-callback calls 147, time in user-callback 0.00 sec
['/opt/local/stow/gurobi910/linux64/lib/libgurobi91.so']
Optimal Result: runtime=0.32sec; objective=108492
Solution written to /autofs/unityaccount/cremi/mdeboute/Bureau/multi-period-flp/solution/instMulti_I20_J100_T4_1_result.txt
